% Logging successfully configured
%%%mzn-stat: initTime=0.004700493
%%%mzn-stat: objective=895
%%%mzn-stat: nodes=701
%%%mzn-stat: restarts=0
%%%mzn-stat: peakDepth=186
%%%mzn-stat: solveTime=0.00785158
%%%mzn-stat: variables=380
%%%mzn-stat: propagators=261
%%%mzn-stat: failures=71
%%%mzn-stat: propagations=4462
%%%mzn-stat: nogoods=71
%%%mzn-stat: numAtomicConstraintsPropagated=0
%%%mzn-stat: allDifferentNumber1TotalHallSetSize=163
%%%mzn-stat: allDifferentNumber1NumberOfConflicts=71
%%%mzn-stat: allDifferentNumber1MaxHallSetSize=17
%%%mzn-stat: allDifferentNumber1PropagationsTotal=931
%%%mzn-stat: allDifferentNumber1PropagationsThatFoundConflict=71
%%%mzn-stat: circuitNumber2PropagationsThatFoundConflict=0
%%%mzn-stat: circuitNumber2TotalFixedEdgesAtConflict=0
%%%mzn-stat: circuitNumber2NumberOfConflicts=0
%%%mzn-stat: circuitNumber2PropagationsThatPruned=18
%%%mzn-stat: circuitNumber2PropagationsTotal=481
%%%mzn-stat: AverageConflictSize=2.2253521126760565
%%%mzn-stat: NumUnitNogoodsLearned=0
%%%mzn-stat: AverageLearnedNogoodLength=2.2253521126760565
%%%mzn-stat: AverageBacktrackAmount=0
%%%mzn-stat: AverageLbd=2.2253521126760565
%%%mzn-stat: 2AutonomousSearchNumBackupCalled=169
%%%mzn-stat: 2AutonomousSearchNumPredicatesRemoved=0
%%%mzn-stat: 2AutonomousSearchNumCalls=170
%%%mzn-stat: 2AutonomousSearchNumPredicatesAdded=107
%%%mzn-stat: 2AutonomousSearchAverageSizeOfHeap=0.6294117647058823
%%%mzn-stat: 2AutonomousSearchNumAssignedPredicatesEncountered=107
%%%mzn-stat-end
maxleg = 895;
succ = array1d(1..20,[2, 4, 6, 7, 1, 8, 11, 9, 10, 12, 3, 15, 17, 16, 13, 5, 18, 20, 14, 19]);
% time elapsed: 0.19 s
----------
%%%mzn-stat: initTime=0.004700493
%%%mzn-stat: objective=663
%%%mzn-stat: nodes=1047
%%%mzn-stat: restarts=0
%%%mzn-stat: peakDepth=186
%%%mzn-stat: solveTime=0.011252636
%%%mzn-stat: variables=380
%%%mzn-stat: propagators=261
%%%mzn-stat: failures=101
%%%mzn-stat: propagations=6116
%%%mzn-stat: nogoods=101
%%%mzn-stat: numAtomicConstraintsPropagated=0
%%%mzn-stat: allDifferentNumber1TotalHallSetSize=230
%%%mzn-stat: allDifferentNumber1NumberOfConflicts=101
%%%mzn-stat: allDifferentNumber1MaxHallSetSize=17
%%%mzn-stat: allDifferentNumber1PropagationsTotal=1248
%%%mzn-stat: allDifferentNumber1PropagationsThatFoundConflict=101
%%%mzn-stat: circuitNumber2PropagationsThatFoundConflict=0
%%%mzn-stat: circuitNumber2TotalFixedEdgesAtConflict=0
%%%mzn-stat: circuitNumber2NumberOfConflicts=0
%%%mzn-stat: circuitNumber2PropagationsThatPruned=27
%%%mzn-stat: circuitNumber2PropagationsTotal=650
%%%mzn-stat: AverageConflictSize=2.257425742574257
%%%mzn-stat: NumUnitNogoodsLearned=0
%%%mzn-stat: AverageLearnedNogoodLength=2.257425742574257
%%%mzn-stat: AverageBacktrackAmount=0
%%%mzn-stat: AverageLbd=2.257425742574257
%%%mzn-stat: 2AutonomousSearchNumBackupCalled=326
%%%mzn-stat: 2AutonomousSearchNumPredicatesRemoved=0
%%%mzn-stat: 2AutonomousSearchNumCalls=328
%%%mzn-stat: 2AutonomousSearchNumPredicatesAdded=149
%%%mzn-stat: 2AutonomousSearchAverageSizeOfHeap=0.698170731707317
%%%mzn-stat: 2AutonomousSearchNumAssignedPredicatesEncountered=229
%%%mzn-stat-end
maxleg = 663;
succ = array1d(1..20,[2, 4, 6, 8, 1, 9, 5, 3, 10, 11, 12, 15, 17, 16, 13, 7, 18, 20, 14, 19]);
% time elapsed: 0.19 s
----------
%%%mzn-stat: initTime=0.004700493
%%%mzn-stat: objective=601
%%%mzn-stat: nodes=1323
%%%mzn-stat: restarts=0
%%%mzn-stat: peakDepth=186
%%%mzn-stat: solveTime=0.013073734
%%%mzn-stat: variables=380
%%%mzn-stat: propagators=261
%%%mzn-stat: failures=116
%%%mzn-stat: propagations=7235
%%%mzn-stat: nogoods=116
%%%mzn-stat: numAtomicConstraintsPropagated=0
%%%mzn-stat: allDifferentNumber1TotalHallSetSize=267
%%%mzn-stat: allDifferentNumber1NumberOfConflicts=116
%%%mzn-stat: allDifferentNumber1MaxHallSetSize=17
%%%mzn-stat: allDifferentNumber1PropagationsTotal=1439
%%%mzn-stat: allDifferentNumber1PropagationsThatFoundConflict=116
%%%mzn-stat: circuitNumber2PropagationsThatFoundConflict=0
%%%mzn-stat: circuitNumber2TotalFixedEdgesAtConflict=0
%%%mzn-stat: circuitNumber2NumberOfConflicts=0
%%%mzn-stat: circuitNumber2PropagationsThatPruned=32
%%%mzn-stat: circuitNumber2PropagationsTotal=753
%%%mzn-stat: AverageConflictSize=2.310344827586207
%%%mzn-stat: NumUnitNogoodsLearned=0
%%%mzn-stat: AverageLearnedNogoodLength=2.310344827586207
%%%mzn-stat: AverageBacktrackAmount=0
%%%mzn-stat: AverageLbd=2.310344827586207
%%%mzn-stat: 2AutonomousSearchNumBackupCalled=490
%%%mzn-stat: 2AutonomousSearchNumPredicatesRemoved=0
%%%mzn-stat: 2AutonomousSearchNumCalls=493
%%%mzn-stat: 2AutonomousSearchNumPredicatesAdded=172
%%%mzn-stat: 2AutonomousSearchAverageSizeOfHeap=0.7200811359026369
%%%mzn-stat: 2AutonomousSearchNumAssignedPredicatesEncountered=355
%%%mzn-stat-end
maxleg = 601;
succ = array1d(1..20,[2, 4, 6, 9, 1, 8, 5, 10, 3, 11, 12, 15, 17, 16, 13, 7, 18, 20, 14, 19]);
% time elapsed: 0.19 s
----------
%%%mzn-stat: initTime=0.004700493
%%%mzn-stat: objective=557
%%%mzn-stat: nodes=1548
%%%mzn-stat: restarts=0
%%%mzn-stat: peakDepth=186
%%%mzn-stat: solveTime=0.01420569
%%%mzn-stat: variables=380
%%%mzn-stat: propagators=261
%%%mzn-stat: failures=127
%%%mzn-stat: propagations=8053
%%%mzn-stat: nogoods=127
%%%mzn-stat: numAtomicConstraintsPropagated=0
%%%mzn-stat: allDifferentNumber1TotalHallSetSize=308
%%%mzn-stat: allDifferentNumber1NumberOfConflicts=127
%%%mzn-stat: allDifferentNumber1MaxHallSetSize=17
%%%mzn-stat: allDifferentNumber1PropagationsTotal=1561
%%%mzn-stat: allDifferentNumber1PropagationsThatFoundConflict=127
%%%mzn-stat: circuitNumber2PropagationsThatFoundConflict=0
%%%mzn-stat: circuitNumber2TotalFixedEdgesAtConflict=0
%%%mzn-stat: circuitNumber2NumberOfConflicts=0
%%%mzn-stat: circuitNumber2PropagationsThatPruned=36
%%%mzn-stat: circuitNumber2PropagationsTotal=815
%%%mzn-stat: AverageConflictSize=2.5669291338582676
%%%mzn-stat: NumUnitNogoodsLearned=0
%%%mzn-stat: AverageLearnedNogoodLength=2.543307086614173
%%%mzn-stat: AverageBacktrackAmount=0
%%%mzn-stat: AverageLbd=2.377952755905512
%%%mzn-stat: 2AutonomousSearchNumBackupCalled=647
%%%mzn-stat: 2AutonomousSearchNumPredicatesRemoved=0
%%%mzn-stat: 2AutonomousSearchNumCalls=651
%%%mzn-stat: 2AutonomousSearchNumPredicatesAdded=211
%%%mzn-stat: 2AutonomousSearchAverageSizeOfHeap=0.7741935483870968
%%%mzn-stat: 2AutonomousSearchNumAssignedPredicatesEncountered=504
%%%mzn-stat-end
maxleg = 557;
succ = array1d(1..20,[2, 4, 6, 9, 1, 8, 5, 10, 3, 15, 13, 11, 17, 16, 12, 7, 18, 20, 14, 19]);
% time elapsed: 0.19 s
----------
%%%mzn-stat: initTime=0.004700493
%%%mzn-stat: objective=550
%%%mzn-stat: nodes=1994
%%%mzn-stat: restarts=0
%%%mzn-stat: peakDepth=186
%%%mzn-stat: solveTime=0.019173951
%%%mzn-stat: variables=380
%%%mzn-stat: propagators=261
%%%mzn-stat: failures=171
%%%mzn-stat: propagations=10688
%%%mzn-stat: nogoods=171
%%%mzn-stat: numAtomicConstraintsPropagated=0
%%%mzn-stat: allDifferentNumber1TotalHallSetSize=455
%%%mzn-stat: allDifferentNumber1NumberOfConflicts=171
%%%mzn-stat: allDifferentNumber1MaxHallSetSize=17
%%%mzn-stat: allDifferentNumber1PropagationsTotal=2023
%%%mzn-stat: allDifferentNumber1PropagationsThatFoundConflict=171
%%%mzn-stat: circuitNumber2PropagationsThatFoundConflict=0
%%%mzn-stat: circuitNumber2TotalFixedEdgesAtConflict=0
%%%mzn-stat: circuitNumber2NumberOfConflicts=0
%%%mzn-stat: circuitNumber2PropagationsThatPruned=42
%%%mzn-stat: circuitNumber2PropagationsTotal=1080
%%%mzn-stat: AverageConflictSize=2.871345029239766
%%%mzn-stat: NumUnitNogoodsLearned=0
%%%mzn-stat: AverageLearnedNogoodLength=2.953216374269006
%%%mzn-stat: AverageBacktrackAmount=0
%%%mzn-stat: AverageLbd=2.736842105263158
%%%mzn-stat: 2AutonomousSearchNumBackupCalled=802
%%%mzn-stat: 2AutonomousSearchNumPredicatesRemoved=0
%%%mzn-stat: 2AutonomousSearchNumCalls=807
%%%mzn-stat: 2AutonomousSearchNumPredicatesAdded=325
%%%mzn-stat: 2AutonomousSearchAverageSizeOfHeap=0.8686493184634448
%%%mzn-stat: 2AutonomousSearchNumAssignedPredicatesEncountered=701
%%%mzn-stat-end
maxleg = 550;
succ = array1d(1..20,[2, 5, 6, 1, 7, 4, 13, 3, 8, 9, 12, 15, 17, 18, 10, 20, 16, 11, 14, 19]);
% time elapsed: 0.20 s
----------
%%%mzn-stat: initTime=0.004700493
%%%mzn-stat: objective=512
%%%mzn-stat: nodes=2179
%%%mzn-stat: restarts=0
%%%mzn-stat: peakDepth=186
%%%mzn-stat: solveTime=0.020459309
%%%mzn-stat: variables=380
%%%mzn-stat: propagators=261
%%%mzn-stat: failures=185
%%%mzn-stat: propagations=11393
%%%mzn-stat: nogoods=185
%%%mzn-stat: numAtomicConstraintsPropagated=0
%%%mzn-stat: allDifferentNumber1TotalHallSetSize=532
%%%mzn-stat: allDifferentNumber1NumberOfConflicts=184
%%%mzn-stat: allDifferentNumber1MaxHallSetSize=17
%%%mzn-stat: allDifferentNumber1PropagationsTotal=2104
%%%mzn-stat: allDifferentNumber1PropagationsThatFoundConflict=184
%%%mzn-stat: circuitNumber2PropagationsThatFoundConflict=0
%%%mzn-stat: circuitNumber2TotalFixedEdgesAtConflict=0
%%%mzn-stat: circuitNumber2NumberOfConflicts=0
%%%mzn-stat: circuitNumber2PropagationsThatPruned=46
%%%mzn-stat: circuitNumber2PropagationsTotal=1123
%%%mzn-stat: AverageConflictSize=3.2594594594594595
%%%mzn-stat: NumUnitNogoodsLearned=0
%%%mzn-stat: AverageLearnedNogoodLength=3.481081081081081
%%%mzn-stat: AverageBacktrackAmount=0
%%%mzn-stat: AverageLbd=3.145945945945946
%%%mzn-stat: 2AutonomousSearchNumBackupCalled=945
%%%mzn-stat: 2AutonomousSearchNumPredicatesRemoved=0
%%%mzn-stat: 2AutonomousSearchNumCalls=951
%%%mzn-stat: 2AutonomousSearchNumPredicatesAdded=419
%%%mzn-stat: 2AutonomousSearchAverageSizeOfHeap=0.9674027339642481
%%%mzn-stat: 2AutonomousSearchNumAssignedPredicatesEncountered=920
%%%mzn-stat-end
maxleg = 512;
succ = array1d(1..20,[2, 5, 6, 1, 7, 4, 13, 3, 8, 11, 12, 15, 17, 18, 9, 20, 16, 10, 14, 19]);
% time elapsed: 0.20 s
----------
%%%mzn-stat: initTime=0.004700493
%%%mzn-stat: objective=451
%%%mzn-stat: nodes=2355
%%%mzn-stat: restarts=0
%%%mzn-stat: peakDepth=186
%%%mzn-stat: solveTime=0.022789055
%%%mzn-stat: variables=380
%%%mzn-stat: propagators=261
%%%mzn-stat: failures=202
%%%mzn-stat: propagations=12272
%%%mzn-stat: nogoods=202
%%%mzn-stat: numAtomicConstraintsPropagated=0
%%%mzn-stat: allDifferentNumber1TotalHallSetSize=633
%%%mzn-stat: allDifferentNumber1NumberOfConflicts=201
%%%mzn-stat: allDifferentNumber1MaxHallSetSize=17
%%%mzn-stat: allDifferentNumber1PropagationsTotal=2216
%%%mzn-stat: allDifferentNumber1PropagationsThatFoundConflict=201
%%%mzn-stat: circuitNumber2PropagationsThatFoundConflict=0
%%%mzn-stat: circuitNumber2TotalFixedEdgesAtConflict=0
%%%mzn-stat: circuitNumber2NumberOfConflicts=0
%%%mzn-stat: circuitNumber2PropagationsThatPruned=53
%%%mzn-stat: circuitNumber2PropagationsTotal=1179
%%%mzn-stat: AverageConflictSize=3.717821782178218
%%%mzn-stat: NumUnitNogoodsLearned=0
%%%mzn-stat: AverageLearnedNogoodLength=3.985148514851485
%%%mzn-stat: AverageBacktrackAmount=0
%%%mzn-stat: AverageLbd=3.495049504950495
%%%mzn-stat: 2AutonomousSearchNumBackupCalled=1067
%%%mzn-stat: 2AutonomousSearchNumPredicatesRemoved=0
%%%mzn-stat: 2AutonomousSearchNumCalls=1074
%%%mzn-stat: 2AutonomousSearchNumPredicatesAdded=535
%%%mzn-stat: 2AutonomousSearchAverageSizeOfHeap=1.085661080074488
%%%mzn-stat: 2AutonomousSearchNumAssignedPredicatesEncountered=1166
%%%mzn-stat-end
maxleg = 451;
succ = array1d(1..20,[2, 5, 6, 1, 7, 8, 13, 9, 4, 11, 3, 15, 17, 18, 10, 20, 16, 12, 14, 19]);
% time elapsed: 0.21 s
----------
%%%mzn-stat: initTime=0.004700493
%%%mzn-stat: objective=449
%%%mzn-stat: nodes=2515
%%%mzn-stat: restarts=0
%%%mzn-stat: peakDepth=186
%%%mzn-stat: solveTime=0.023772236
%%%mzn-stat: variables=380
%%%mzn-stat: propagators=261
%%%mzn-stat: failures=209
%%%mzn-stat: propagations=12855
%%%mzn-stat: nogoods=209
%%%mzn-stat: numAtomicConstraintsPropagated=0
%%%mzn-stat: allDifferentNumber1TotalHallSetSize=670
%%%mzn-stat: allDifferentNumber1NumberOfConflicts=208
%%%mzn-stat: allDifferentNumber1MaxHallSetSize=17
%%%mzn-stat: allDifferentNumber1PropagationsTotal=2266
%%%mzn-stat: allDifferentNumber1PropagationsThatFoundConflict=208
%%%mzn-stat: circuitNumber2PropagationsThatFoundConflict=0
%%%mzn-stat: circuitNumber2TotalFixedEdgesAtConflict=0
%%%mzn-stat: circuitNumber2NumberOfConflicts=0
%%%mzn-stat: circuitNumber2PropagationsThatPruned=57
%%%mzn-stat: circuitNumber2PropagationsTotal=1208
%%%mzn-stat: AverageConflictSize=3.84688995215311
%%%mzn-stat: NumUnitNogoodsLearned=0
%%%mzn-stat: AverageLearnedNogoodLength=4.248803827751196
%%%mzn-stat: AverageBacktrackAmount=0
%%%mzn-stat: AverageLbd=3.7177033492822966
%%%mzn-stat: 2AutonomousSearchNumBackupCalled=1203
%%%mzn-stat: 2AutonomousSearchNumPredicatesRemoved=0
%%%mzn-stat: 2AutonomousSearchNumCalls=1211
%%%mzn-stat: 2AutonomousSearchNumPredicatesAdded=628
%%%mzn-stat: 2AutonomousSearchAverageSizeOfHeap=1.1750619322873659
%%%mzn-stat: 2AutonomousSearchNumAssignedPredicatesEncountered=1423
%%%mzn-stat-end
maxleg = 449;
succ = array1d(1..20,[2, 5, 6, 1, 7, 8, 13, 9, 4, 11, 12, 15, 17, 18, 3, 20, 16, 10, 14, 19]);
% time elapsed: 0.21 s
----------
%%%mzn-stat: initTime=0.004700493
%%%mzn-stat: objective=440
%%%mzn-stat: nodes=2694
%%%mzn-stat: restarts=0
%%%mzn-stat: peakDepth=186
%%%mzn-stat: solveTime=0.028091383
%%%mzn-stat: variables=380
%%%mzn-stat: propagators=261
%%%mzn-stat: failures=225
%%%mzn-stat: propagations=13683
%%%mzn-stat: nogoods=225
%%%mzn-stat: numAtomicConstraintsPropagated=0
%%%mzn-stat: allDifferentNumber1TotalHallSetSize=790
%%%mzn-stat: allDifferentNumber1NumberOfConflicts=224
%%%mzn-stat: allDifferentNumber1MaxHallSetSize=17
%%%mzn-stat: allDifferentNumber1PropagationsTotal=2354
%%%mzn-stat: allDifferentNumber1PropagationsThatFoundConflict=224
%%%mzn-stat: circuitNumber2PropagationsThatFoundConflict=0
%%%mzn-stat: circuitNumber2TotalFixedEdgesAtConflict=0
%%%mzn-stat: circuitNumber2NumberOfConflicts=0
%%%mzn-stat: circuitNumber2PropagationsThatPruned=58
%%%mzn-stat: circuitNumber2PropagationsTotal=1253
%%%mzn-stat: AverageConflictSize=4.302222222222222
%%%mzn-stat: NumUnitNogoodsLearned=0
%%%mzn-stat: AverageLearnedNogoodLength=4.884444444444444
%%%mzn-stat: AverageBacktrackAmount=0
%%%mzn-stat: AverageLbd=4.035555555555556
%%%mzn-stat: 2AutonomousSearchNumBackupCalled=1339
%%%mzn-stat: 2AutonomousSearchNumPredicatesRemoved=0
%%%mzn-stat: 2AutonomousSearchNumCalls=1348
%%%mzn-stat: 2AutonomousSearchNumPredicatesAdded=791
%%%mzn-stat: 2AutonomousSearchAverageSizeOfHeap=1.2870919881305638
%%%mzn-stat: 2AutonomousSearchNumAssignedPredicatesEncountered=1735
%%%mzn-stat-end
maxleg = 440;
succ = array1d(1..20,[2, 5, 6, 1, 7, 8, 13, 9, 10, 18, 12, 15, 11, 4, 3, 20, 16, 17, 14, 19]);
% time elapsed: 0.22 s
----------
%%%mzn-stat: initTime=0.004700493
%%%mzn-stat: objective=416
%%%mzn-stat: nodes=2831
%%%mzn-stat: restarts=0
%%%mzn-stat: peakDepth=186
%%%mzn-stat: solveTime=0.029011315
%%%mzn-stat: variables=380
%%%mzn-stat: propagators=261
%%%mzn-stat: failures=230
%%%mzn-stat: propagations=14247
%%%mzn-stat: nogoods=230
%%%mzn-stat: numAtomicConstraintsPropagated=0
%%%mzn-stat: allDifferentNumber1TotalHallSetSize=829
%%%mzn-stat: allDifferentNumber1NumberOfConflicts=229
%%%mzn-stat: allDifferentNumber1MaxHallSetSize=17
%%%mzn-stat: allDifferentNumber1PropagationsTotal=2399
%%%mzn-stat: allDifferentNumber1PropagationsThatFoundConflict=229
%%%mzn-stat: circuitNumber2PropagationsThatFoundConflict=0
%%%mzn-stat: circuitNumber2TotalFixedEdgesAtConflict=0
%%%mzn-stat: circuitNumber2NumberOfConflicts=0
%%%mzn-stat: circuitNumber2PropagationsThatPruned=60
%%%mzn-stat: circuitNumber2PropagationsTotal=1277
%%%mzn-stat: AverageConflictSize=4.439130434782609
%%%mzn-stat: NumUnitNogoodsLearned=0
%%%mzn-stat: AverageLearnedNogoodLength=5.01304347826087
%%%mzn-stat: AverageBacktrackAmount=0
%%%mzn-stat: AverageLbd=4.095652173913043
%%%mzn-stat: 2AutonomousSearchNumBackupCalled=1453
%%%mzn-stat: 2AutonomousSearchNumPredicatesRemoved=0
%%%mzn-stat: 2AutonomousSearchNumCalls=1463
%%%mzn-stat: 2AutonomousSearchNumPredicatesAdded=879
%%%mzn-stat: 2AutonomousSearchAverageSizeOfHeap=1.4073820915926178
%%%mzn-stat: 2AutonomousSearchNumAssignedPredicatesEncountered=2059
%%%mzn-stat-end
maxleg = 416;
succ = array1d(1..20,[2, 5, 6, 1, 7, 8, 13, 15, 4, 3, 12, 18, 11, 19, 9, 14, 16, 17, 20, 10]);
% time elapsed: 0.22 s
----------
%%%mzn-stat: initTime=0.004700493
%%%mzn-stat: objective=385
%%%mzn-stat: nodes=3039
%%%mzn-stat: restarts=0
%%%mzn-stat: peakDepth=186
%%%mzn-stat: solveTime=0.031900718
%%%mzn-stat: variables=380
%%%mzn-stat: propagators=261
%%%mzn-stat: failures=261
%%%mzn-stat: propagations=15682
%%%mzn-stat: nogoods=261
%%%mzn-stat: numAtomicConstraintsPropagated=0
%%%mzn-stat: allDifferentNumber1TotalHallSetSize=976
%%%mzn-stat: allDifferentNumber1NumberOfConflicts=259
%%%mzn-stat: allDifferentNumber1MaxHallSetSize=17
%%%mzn-stat: allDifferentNumber1PropagationsTotal=2568
%%%mzn-stat: allDifferentNumber1PropagationsThatFoundConflict=259
%%%mzn-stat: circuitNumber2PropagationsThatFoundConflict=1
%%%mzn-stat: circuitNumber2TotalFixedEdgesAtConflict=18
%%%mzn-stat: circuitNumber2NumberOfConflicts=1
%%%mzn-stat: circuitNumber2PropagationsThatPruned=70
%%%mzn-stat: circuitNumber2PropagationsTotal=1372
%%%mzn-stat: AverageConflictSize=4.8773946360153255
%%%mzn-stat: NumUnitNogoodsLearned=0
%%%mzn-stat: AverageLearnedNogoodLength=5.494252873563219
%%%mzn-stat: AverageBacktrackAmount=0
%%%mzn-stat: AverageLbd=4.256704980842912
%%%mzn-stat: 2AutonomousSearchNumBackupCalled=1566
%%%mzn-stat: 2AutonomousSearchNumPredicatesRemoved=0
%%%mzn-stat: 2AutonomousSearchNumCalls=1577
%%%mzn-stat: 2AutonomousSearchNumPredicatesAdded=1100
%%%mzn-stat: 2AutonomousSearchAverageSizeOfHeap=1.5529486366518706
%%%mzn-stat: 2AutonomousSearchNumAssignedPredicatesEncountered=2449
%%%mzn-stat-end
maxleg = 385;
succ = array1d(1..20,[2, 5, 6, 14, 7, 8, 13, 15, 4, 1, 12, 3, 11, 19, 9, 17, 18, 10, 20, 16]);
% time elapsed: 0.22 s
----------
%%%mzn-stat: initTime=0.004700493
%%%mzn-stat: objective=383
%%%mzn-stat: nodes=3225
%%%mzn-stat: restarts=0
%%%mzn-stat: peakDepth=186
%%%mzn-stat: solveTime=0.033251215
%%%mzn-stat: variables=380
%%%mzn-stat: propagators=261
%%%mzn-stat: failures=270
%%%mzn-stat: propagations=16810
%%%mzn-stat: nogoods=270
%%%mzn-stat: numAtomicConstraintsPropagated=0
%%%mzn-stat: allDifferentNumber1TotalHallSetSize=994
%%%mzn-stat: allDifferentNumber1NumberOfConflicts=268
%%%mzn-stat: allDifferentNumber1MaxHallSetSize=17
%%%mzn-stat: allDifferentNumber1PropagationsTotal=2692
%%%mzn-stat: allDifferentNumber1PropagationsThatFoundConflict=268
%%%mzn-stat: circuitNumber2PropagationsThatFoundConflict=1
%%%mzn-stat: circuitNumber2TotalFixedEdgesAtConflict=18
%%%mzn-stat: circuitNumber2NumberOfConflicts=1
%%%mzn-stat: circuitNumber2PropagationsThatPruned=78
%%%mzn-stat: circuitNumber2PropagationsTotal=1445
%%%mzn-stat: AverageConflictSize=4.781481481481482
%%%mzn-stat: NumUnitNogoodsLearned=0
%%%mzn-stat: AverageLearnedNogoodLength=5.377777777777778
%%%mzn-stat: AverageBacktrackAmount=0
%%%mzn-stat: AverageLbd=4.181481481481481
%%%mzn-stat: 2AutonomousSearchNumBackupCalled=1677
%%%mzn-stat: 2AutonomousSearchNumPredicatesRemoved=0
%%%mzn-stat: 2AutonomousSearchNumCalls=1689
%%%mzn-stat: 2AutonomousSearchNumPredicatesAdded=1115
%%%mzn-stat: 2AutonomousSearchAverageSizeOfHeap=1.6814683244523387
%%%mzn-stat: 2AutonomousSearchNumAssignedPredicatesEncountered=2840
%%%mzn-stat-end
maxleg = 383;
succ = array1d(1..20,[2, 5, 6, 14, 7, 8, 13, 15, 4, 3, 12, 10, 11, 16, 9, 17, 18, 20, 1, 19]);
% time elapsed: 0.22 s
----------
%%%mzn-stat: initTime=0.004700493
%%%mzn-stat: objective=377
%%%mzn-stat: nodes=3396
%%%mzn-stat: restarts=0
%%%mzn-stat: peakDepth=186
%%%mzn-stat: solveTime=0.034278079
%%%mzn-stat: variables=380
%%%mzn-stat: propagators=261
%%%mzn-stat: failures=277
%%%mzn-stat: propagations=17864
%%%mzn-stat: nogoods=277
%%%mzn-stat: numAtomicConstraintsPropagated=0
%%%mzn-stat: allDifferentNumber1TotalHallSetSize=1008
%%%mzn-stat: allDifferentNumber1NumberOfConflicts=275
%%%mzn-stat: allDifferentNumber1MaxHallSetSize=17
%%%mzn-stat: allDifferentNumber1PropagationsTotal=2789
%%%mzn-stat: allDifferentNumber1PropagationsThatFoundConflict=275
%%%mzn-stat: circuitNumber2PropagationsThatFoundConflict=1
%%%mzn-stat: circuitNumber2TotalFixedEdgesAtConflict=18
%%%mzn-stat: circuitNumber2NumberOfConflicts=1
%%%mzn-stat: circuitNumber2PropagationsThatPruned=87
%%%mzn-stat: circuitNumber2PropagationsTotal=1510
%%%mzn-stat: AverageConflictSize=4.7111913357400725
%%%mzn-stat: NumUnitNogoodsLearned=0
%%%mzn-stat: AverageLearnedNogoodLength=5.292418772563177
%%%mzn-stat: AverageBacktrackAmount=0
%%%mzn-stat: AverageLbd=4.126353790613718
%%%mzn-stat: 2AutonomousSearchNumBackupCalled=1784
%%%mzn-stat: 2AutonomousSearchNumPredicatesRemoved=0
%%%mzn-stat: 2AutonomousSearchNumCalls=1797
%%%mzn-stat: 2AutonomousSearchNumPredicatesAdded=1128
%%%mzn-stat: 2AutonomousSearchAverageSizeOfHeap=1.7991096271563718
%%%mzn-stat: 2AutonomousSearchNumAssignedPredicatesEncountered=3233
%%%mzn-stat-end
maxleg = 377;
succ = array1d(1..20,[2, 5, 6, 14, 16, 8, 13, 15, 1, 3, 12, 10, 11, 18, 9, 17, 20, 7, 4, 19]);
% time elapsed: 0.22 s
----------
%%%mzn-stat: initTime=0.004700493
%%%mzn-stat: objective=376
%%%mzn-stat: nodes=3518
%%%mzn-stat: restarts=0
%%%mzn-stat: peakDepth=186
%%%mzn-stat: solveTime=0.035017846
%%%mzn-stat: variables=380
%%%mzn-stat: propagators=261
%%%mzn-stat: failures=282
%%%mzn-stat: propagations=18428
%%%mzn-stat: nogoods=282
%%%mzn-stat: numAtomicConstraintsPropagated=0
%%%mzn-stat: allDifferentNumber1TotalHallSetSize=1021
%%%mzn-stat: allDifferentNumber1NumberOfConflicts=280
%%%mzn-stat: allDifferentNumber1MaxHallSetSize=17
%%%mzn-stat: allDifferentNumber1PropagationsTotal=2831
%%%mzn-stat: allDifferentNumber1PropagationsThatFoundConflict=280
%%%mzn-stat: circuitNumber2PropagationsThatFoundConflict=1
%%%mzn-stat: circuitNumber2TotalFixedEdgesAtConflict=18
%%%mzn-stat: circuitNumber2NumberOfConflicts=1
%%%mzn-stat: circuitNumber2PropagationsThatPruned=91
%%%mzn-stat: circuitNumber2PropagationsTotal=1533
%%%mzn-stat: AverageConflictSize=4.74468085106383
%%%mzn-stat: NumUnitNogoodsLearned=0
%%%mzn-stat: AverageLearnedNogoodLength=5.421985815602837
%%%mzn-stat: AverageBacktrackAmount=0
%%%mzn-stat: AverageLbd=4.212765957446808
%%%mzn-stat: 2AutonomousSearchNumBackupCalled=1886
%%%mzn-stat: 2AutonomousSearchNumPredicatesRemoved=0
%%%mzn-stat: 2AutonomousSearchNumCalls=1900
%%%mzn-stat: 2AutonomousSearchNumPredicatesAdded=1182
%%%mzn-stat: 2AutonomousSearchAverageSizeOfHeap=1.916842105263158
%%%mzn-stat: 2AutonomousSearchNumAssignedPredicatesEncountered=3642
%%%mzn-stat-end
maxleg = 376;
succ = array1d(1..20,[2, 5, 6, 14, 16, 8, 13, 15, 4, 3, 12, 10, 11, 18, 9, 7, 20, 17, 1, 19]);
% time elapsed: 0.23 s
----------
%%%mzn-stat: initTime=0.004700493
%%%mzn-stat: objective=373
%%%mzn-stat: nodes=3646
%%%mzn-stat: restarts=0
%%%mzn-stat: peakDepth=186
%%%mzn-stat: solveTime=0.035728523
%%%mzn-stat: variables=380
%%%mzn-stat: propagators=261
%%%mzn-stat: failures=285
%%%mzn-stat: propagations=19035
%%%mzn-stat: nogoods=285
%%%mzn-stat: numAtomicConstraintsPropagated=0
%%%mzn-stat: allDifferentNumber1TotalHallSetSize=1027
%%%mzn-stat: allDifferentNumber1NumberOfConflicts=283
%%%mzn-stat: allDifferentNumber1MaxHallSetSize=17
%%%mzn-stat: allDifferentNumber1PropagationsTotal=2872
%%%mzn-stat: allDifferentNumber1PropagationsThatFoundConflict=283
%%%mzn-stat: circuitNumber2PropagationsThatFoundConflict=1
%%%mzn-stat: circuitNumber2TotalFixedEdgesAtConflict=18
%%%mzn-stat: circuitNumber2NumberOfConflicts=1
%%%mzn-stat: circuitNumber2PropagationsThatPruned=93
%%%mzn-stat: circuitNumber2PropagationsTotal=1556
%%%mzn-stat: AverageConflictSize=4.71578947368421
%%%mzn-stat: NumUnitNogoodsLearned=0
%%%mzn-stat: AverageLearnedNogoodLength=5.385964912280702
%%%mzn-stat: AverageBacktrackAmount=0
%%%mzn-stat: AverageLbd=4.189473684210526
%%%mzn-stat: 2AutonomousSearchNumBackupCalled=1989
%%%mzn-stat: 2AutonomousSearchNumPredicatesRemoved=0
%%%mzn-stat: 2AutonomousSearchNumCalls=2004
%%%mzn-stat: 2AutonomousSearchNumPredicatesAdded=1189
%%%mzn-stat: 2AutonomousSearchAverageSizeOfHeap=2.0214570858283434
%%%mzn-stat: 2AutonomousSearchNumAssignedPredicatesEncountered=4051
%%%mzn-stat-end
maxleg = 373;
succ = array1d(1..20,[2, 5, 6, 14, 16, 8, 13, 15, 10, 18, 12, 3, 11, 1, 9, 7, 20, 17, 4, 19]);
% time elapsed: 0.23 s
----------
%%%mzn-stat: initTime=0.004700493
%%%mzn-stat: objective=370
%%%mzn-stat: nodes=3797
%%%mzn-stat: restarts=0
%%%mzn-stat: peakDepth=186
%%%mzn-stat: solveTime=0.037303247
%%%mzn-stat: variables=380
%%%mzn-stat: propagators=261
%%%mzn-stat: failures=300
%%%mzn-stat: propagations=20088
%%%mzn-stat: nogoods=300
%%%mzn-stat: numAtomicConstraintsPropagated=0
%%%mzn-stat: allDifferentNumber1TotalHallSetSize=1078
%%%mzn-stat: allDifferentNumber1NumberOfConflicts=297
%%%mzn-stat: allDifferentNumber1MaxHallSetSize=17
%%%mzn-stat: allDifferentNumber1PropagationsTotal=2970
%%%mzn-stat: allDifferentNumber1PropagationsThatFoundConflict=297
%%%mzn-stat: circuitNumber2PropagationsThatFoundConflict=2
%%%mzn-stat: circuitNumber2TotalFixedEdgesAtConflict=36
%%%mzn-stat: circuitNumber2NumberOfConflicts=2
%%%mzn-stat: circuitNumber2PropagationsThatPruned=98
%%%mzn-stat: circuitNumber2PropagationsTotal=1613
%%%mzn-stat: AverageConflictSize=4.8933333333333335
%%%mzn-stat: NumUnitNogoodsLearned=0
%%%mzn-stat: AverageLearnedNogoodLength=5.843333333333334
%%%mzn-stat: AverageBacktrackAmount=0
%%%mzn-stat: AverageLbd=4.293333333333333
%%%mzn-stat: 2AutonomousSearchNumBackupCalled=2087
%%%mzn-stat: 2AutonomousSearchNumPredicatesRemoved=0
%%%mzn-stat: 2AutonomousSearchNumCalls=2103
%%%mzn-stat: 2AutonomousSearchNumPredicatesAdded=1315
%%%mzn-stat: 2AutonomousSearchAverageSizeOfHeap=2.1293390394674274
%%%mzn-stat: 2AutonomousSearchNumAssignedPredicatesEncountered=4478
%%%mzn-stat-end
maxleg = 370;
succ = array1d(1..20,[2, 5, 6, 14, 16, 8, 17, 15, 10, 20, 12, 3, 11, 1, 9, 7, 18, 13, 4, 19]);
% time elapsed: 0.23 s
----------
%%%mzn-stat: initTime=0.004700493
%%%mzn-stat: objective=360
%%%mzn-stat: nodes=4095
%%%mzn-stat: restarts=0
%%%mzn-stat: peakDepth=186
%%%mzn-stat: solveTime=0.05073505
%%%mzn-stat: variables=380
%%%mzn-stat: propagators=261
%%%mzn-stat: failures=429
%%%mzn-stat: propagations=24984
%%%mzn-stat: nogoods=429
%%%mzn-stat: numAtomicConstraintsPropagated=0
%%%mzn-stat: allDifferentNumber1TotalHallSetSize=1737
%%%mzn-stat: allDifferentNumber1NumberOfConflicts=417
%%%mzn-stat: allDifferentNumber1MaxHallSetSize=17
%%%mzn-stat: allDifferentNumber1PropagationsTotal=3508
%%%mzn-stat: allDifferentNumber1PropagationsThatFoundConflict=417
%%%mzn-stat: circuitNumber2PropagationsThatFoundConflict=8
%%%mzn-stat: circuitNumber2TotalFixedEdgesAtConflict=128
%%%mzn-stat: circuitNumber2NumberOfConflicts=8
%%%mzn-stat: circuitNumber2PropagationsThatPruned=151
%%%mzn-stat: circuitNumber2PropagationsTotal=1879
%%%mzn-stat: AverageConflictSize=7.076923076923077
%%%mzn-stat: NumUnitNogoodsLearned=0
%%%mzn-stat: AverageLearnedNogoodLength=10.948717948717949
%%%mzn-stat: AverageBacktrackAmount=0
%%%mzn-stat: AverageLbd=5.0979020979020975
%%%mzn-stat: 2AutonomousSearchNumBackupCalled=2174
%%%mzn-stat: 2AutonomousSearchNumPredicatesRemoved=0
%%%mzn-stat: 2AutonomousSearchNumCalls=2191
%%%mzn-stat: 2AutonomousSearchNumPredicatesAdded=1733
%%%mzn-stat: 2AutonomousSearchAverageSizeOfHeap=2.3062528525787314
%%%mzn-stat: 2AutonomousSearchNumAssignedPredicatesEncountered=5053
%%%mzn-stat-end
maxleg = 360;
succ = array1d(1..20,[2, 5, 6, 19, 16, 8, 17, 15, 10, 18, 12, 3, 11, 4, 9, 7, 20, 14, 1, 13]);
% time elapsed: 0.24 s
----------
%%%mzn-stat: initTime=0.004700493
%%%mzn-stat: objective=357
%%%mzn-stat: nodes=4196
%%%mzn-stat: restarts=0
%%%mzn-stat: peakDepth=186
%%%mzn-stat: solveTime=0.051368702
%%%mzn-stat: variables=380
%%%mzn-stat: propagators=261
%%%mzn-stat: failures=431
%%%mzn-stat: propagations=25548
%%%mzn-stat: nogoods=431
%%%mzn-stat: numAtomicConstraintsPropagated=0
%%%mzn-stat: allDifferentNumber1TotalHallSetSize=1741
%%%mzn-stat: allDifferentNumber1NumberOfConflicts=419
%%%mzn-stat: allDifferentNumber1MaxHallSetSize=17
%%%mzn-stat: allDifferentNumber1PropagationsTotal=3537
%%%mzn-stat: allDifferentNumber1PropagationsThatFoundConflict=419
%%%mzn-stat: circuitNumber2PropagationsThatFoundConflict=8
%%%mzn-stat: circuitNumber2TotalFixedEdgesAtConflict=128
%%%mzn-stat: circuitNumber2NumberOfConflicts=8
%%%mzn-stat: circuitNumber2PropagationsThatPruned=154
%%%mzn-stat: circuitNumber2PropagationsTotal=1896
%%%mzn-stat: AverageConflictSize=7.0533642691415315
%%%mzn-stat: NumUnitNogoodsLearned=0
%%%mzn-stat: AverageLearnedNogoodLength=10.93967517401392
%%%mzn-stat: AverageBacktrackAmount=0
%%%mzn-stat: AverageLbd=5.099767981438515
%%%mzn-stat: 2AutonomousSearchNumBackupCalled=2259
%%%mzn-stat: 2AutonomousSearchNumPredicatesRemoved=0
%%%mzn-stat: 2AutonomousSearchNumCalls=2277
%%%mzn-stat: 2AutonomousSearchNumPredicatesAdded=1780
%%%mzn-stat: 2AutonomousSearchAverageSizeOfHeap=2.4716732542819497
%%%mzn-stat: 2AutonomousSearchNumAssignedPredicatesEncountered=5628
%%%mzn-stat-end
maxleg = 357;
succ = array1d(1..20,[2, 5, 6, 19, 16, 8, 17, 15, 10, 20, 12, 3, 11, 4, 9, 7, 18, 13, 1, 14]);
% time elapsed: 0.24 s
----------
==========
% time elapsed: 0.24 s
%%%mzn-stat: initTime=0.004700493
%%%mzn-stat: objective=357
%%%mzn-stat: nodes=4196
%%%mzn-stat: restarts=0
%%%mzn-stat: peakDepth=186
%%%mzn-stat: solveTime=0.051600005
%%%mzn-stat: variables=380
%%%mzn-stat: propagators=261
%%%mzn-stat: failures=432
%%%mzn-stat: propagations=25717
%%%mzn-stat: nogoods=432
%%%mzn-stat: numAtomicConstraintsPropagated=0
%%%mzn-stat: allDifferentNumber1TotalHallSetSize=1761
%%%mzn-stat: allDifferentNumber1NumberOfConflicts=420
%%%mzn-stat: allDifferentNumber1MaxHallSetSize=20
%%%mzn-stat: allDifferentNumber1PropagationsTotal=3539
%%%mzn-stat: allDifferentNumber1PropagationsThatFoundConflict=420
%%%mzn-stat: circuitNumber2PropagationsThatFoundConflict=8
%%%mzn-stat: circuitNumber2TotalFixedEdgesAtConflict=128
%%%mzn-stat: circuitNumber2NumberOfConflicts=8
%%%mzn-stat: circuitNumber2PropagationsThatPruned=154
%%%mzn-stat: circuitNumber2PropagationsTotal=1897
%%%mzn-stat: AverageConflictSize=7.083333333333333
%%%mzn-stat: NumUnitNogoodsLearned=1
%%%mzn-stat: AverageLearnedNogoodLength=10.916666666666666
%%%mzn-stat: AverageBacktrackAmount=0
%%%mzn-stat: AverageLbd=5.090277777777778
%%%mzn-stat: 2AutonomousSearchNumBackupCalled=2259
%%%mzn-stat: 2AutonomousSearchNumPredicatesRemoved=0
%%%mzn-stat: 2AutonomousSearchNumCalls=2277
%%%mzn-stat: 2AutonomousSearchNumPredicatesAdded=1960
%%%mzn-stat: 2AutonomousSearchAverageSizeOfHeap=2.4716732542819497
%%%mzn-stat: 2AutonomousSearchNumAssignedPredicatesEncountered=5628
%%%mzn-stat-end
